p cnf 652 2053
a 2 3 4 5 6 7 8 12 17 19 24 29 34 37 38 45 46 50 54 55 58 62 66 68 70 72 74 75 79 83 85 89 93 98 100 104 106 107 111 112 113 114 118 122 124 128 130 135 136 137 141 145 147 151 153 158 159 160 164 168 170 174 176 181 182 183 185 0
e 1 9 10 11 13 14 15 16 18 20 21 22 23 25 26 27 28 30 31 32 33 35 36 39 40 41 42 43 44 47 48 49 51 52 53 56 57 59 60 61 63 64 65 67 69 71 73 76 77 78 80 81 82 84 86 87 88 90 91 92 94 95 96 97 99 101 102 103 105 108 109 110 115 116 117 119 120 121 123 125 126 127 129 131 132 133 134 138 139 140 142 143 144 146 148 149 150 152 154 155 156 157 161 162 163 165 166 167 169 171 172 173 175 177 178 179 180 184 186 187 188 189 190 191 192 193 194 195 196 197 198 199 200 201 202 203 204 205 206 207 208 209 210 211 212 213 214 215 216 217 218 219 220 221 222 223 224 225 226 227 228 229 230 231 232 233 234 235 236 237 238 239 240 241 242 243 244 245 246 247 248 249 250 251 252 253 254 255 256 257 258 259 260 261 262 263 264 265 266 267 268 269 270 271 272 273 274 275 276 277 278 279 280 281 282 283 284 285 286 287 288 289 290 291 292 293 294 295 296 297 298 299 300 301 302 303 304 305 306 307 308 309 310 311 312 313 314 315 316 317 318 319 320 321 322 323 324 325 326 327 328 329 330 331 332 333 334 335 336 337 338 339 340 341 342 343 344 345 346 347 348 349 350 351 352 353 354 355 356 357 358 359 360 361 362 363 364 365 366 367 368 369 370 371 372 373 374 375 376 377 378 379 380 381 382 383 384 385 386 387 388 389 390 391 392 393 394 395 396 397 398 399 400 401 402 403 404 405 406 407 408 409 410 411 412 413 414 415 416 417 418 419 420 421 422 423 424 425 426 427 428 429 430 431 432 433 434 435 436 437 438 439 440 441 442 443 444 445 446 447 448 449 450 451 452 453 454 455 456 457 458 459 460 461 462 463 464 465 466 467 468 469 470 471 472 473 474 475 476 477 478 479 480 481 482 483 484 485 486 487 488 489 490 491 492 493 494 495 496 497 498 499 500 501 502 503 504 505 506 507 508 509 510 511 512 513 514 515 516 517 518 519 520 521 522 523 524 525 526 527 528 529 530 531 532 533 534 535 536 537 538 539 540 541 542 543 544 545 546 547 548 549 550 551 552 553 554 555 556 557 558 559 560 561 562 563 564 565 566 567 568 569 570 571 572 573 574 575 576 577 578 579 580 581 582 583 584 585 586 587 588 589 590 591 592 593 594 595 596 597 598 599 600 601 602 603 604 605 606 607 608 609 610 611 612 613 614 615 616 617 618 619 620 621 622 623 624 625 626 627 628 629 630 631 632 633 634 635 636 637 638 639 640 641 642 643 644 645 646 647 648 649 650 651 652 0
1 0
7 -9 0
8 -9 0
-7 -8 9 0
7 -10 0
-8 -10 0
-7 8 10 0
7 11 0
-9 11 0
-10 11 0
-7 9 10 -11 0
-12 13 0
12 13 0
6 -14 0
11 -14 0
13 -14 0
-6 -11 -13 14 0
-6 -15 0
11 -15 0
6 -11 15 0
-14 16 0
-15 16 0
14 15 -16 0
-17 18 0
17 18 0
-19 20 0
19 20 0
5 -21 0
16 -21 0
18 -21 0
20 -21 0
-5 -16 -18 -20 21 0
-5 -22 0
16 -22 0
18 -22 0
5 -16 -18 22 0
-21 23 0
-22 23 0
21 22 -23 0
24 25 0
-24 25 0
4 -26 0
23 -26 0
25 -26 0
-4 -23 -25 26 0
-4 -27 0
23 -27 0
4 -23 27 0
-26 28 0
-27 28 0
26 27 -28 0
29 30 0
-29 30 0
3 -31 0
28 -31 0
30 -31 0
-3 -28 -30 31 0
-3 -32 0
28 -32 0
3 -28 32 0
-31 33 0
-32 33 0
31 32 -33 0
34 35 0
-34 35 0
2 -36 0
33 -36 0
35 -36 0
-2 -33 -35 36 0
38 39 0
-38 39 0
37 -40 0
33 -40 0
39 -40 0
-37 -33 -39 40 0
-37 -41 0
33 -41 0
37 -33 41 0
-40 42 0
-41 42 0
40 41 -42 0
-2 -43 0
42 -43 0
2 -42 43 0
-36 44 0
-43 44 0
36 43 -44 0
45 -47 0
46 -47 0
-45 -46 47 0
45 -48 0
-46 -48 0
-45 46 48 0
-47 49 0
-48 49 0
47 48 -49 0
49 -51 0
50 -51 0
-49 -50 51 0
49 -52 0
-50 -52 0
-49 50 52 0
-51 53 0
-52 53 0
51 52 -53 0
53 -56 0
-54 -56 0
55 -56 0
-53 54 -55 56 0
53 -57 0
-54 -57 0
-55 -57 0
-53 54 55 57 0
53 -59 0
54 -59 0
58 -59 0
-53 -54 -58 59 0
53 -60 0
54 -60 0
-58 -60 0
-53 -54 58 60 0
-56 61 0
-57 61 0
-59 61 0
-60 61 0
56 57 59 60 -61 0
61 -63 0
62 -63 0
-61 -62 63 0
61 -64 0
-62 -64 0
-61 62 64 0
-63 65 0
-64 65 0
63 64 -65 0
65 -67 0
66 -67 0
-65 -66 67 0
65 -69 0
-66 -69 0
68 -69 0
-65 66 -68 69 0
65 -71 0
-66 -71 0
-68 -71 0
70 -71 0
-65 66 68 -70 71 0
65 -73 0
-66 -73 0
-68 -73 0
-70 -73 0
72 -73 0
-65 66 68 70 -72 73 0
65 -76 0
-66 -76 0
-68 -76 0
-70 -76 0
-72 -76 0
74 -76 0
75 -76 0
-65 66 68 70 72 -74 -75 76 0
65 -77 0
-66 -77 0
-68 -77 0
-70 -77 0
-72 -77 0
74 -77 0
-75 -77 0
-65 66 68 70 72 -74 75 77 0
-76 78 0
-77 78 0
76 77 -78 0
78 -80 0
79 -80 0
-78 -79 80 0
78 -81 0
-79 -81 0
-78 79 81 0
-80 82 0
-81 82 0
80 81 -82 0
82 -84 0
83 -84 0
-82 -83 84 0
65 -86 0
-66 -86 0
-68 -86 0
-70 -86 0
-72 -86 0
-74 -86 0
85 -86 0
-65 66 68 70 72 74 -85 86 0
65 -87 0
-66 -87 0
-68 -87 0
-70 -87 0
-72 -87 0
-74 -87 0
-85 -87 0
-65 66 68 70 72 74 85 87 0
-86 88 0
-87 88 0
86 87 -88 0
88 -90 0
89 -90 0
-88 -89 90 0
88 -91 0
-89 -91 0
-88 89 91 0
-90 92 0
-91 92 0
90 91 -92 0
92 -94 0
93 -94 0
-92 -93 94 0
82 -95 0
-83 -95 0
-82 83 95 0
92 -96 0
-93 -96 0
-92 93 96 0
-84 97 0
-94 97 0
-95 97 0
-96 97 0
84 94 95 96 -97 0
97 -99 0
-98 -99 0
-97 98 99 0
97 -101 0
98 -101 0
100 -101 0
-97 -98 -100 101 0
97 -102 0
98 -102 0
-100 -102 0
-97 -98 100 102 0
45 103 0
-67 103 0
-69 103 0
-71 103 0
-73 103 0
-99 103 0
-101 103 0
-102 103 0
-45 67 69 71 73 99 101 102 -103 0
-104 105 0
104 105 0
-107 108 0
107 108 0
106 -109 0
108 -109 0
-106 -108 109 0
106 110 0
-109 110 0
-106 109 -110 0
113 -115 0
114 -115 0
-113 -114 115 0
113 -116 0
-114 -116 0
-113 114 116 0
-115 117 0
-116 117 0
115 116 -117 0
117 -119 0
118 -119 0
-117 -118 119 0
117 -120 0
-118 -120 0
-117 118 120 0
-119 121 0
-120 121 0
119 120 -121 0
121 -123 0
-122 -123 0
-121 122 123 0
121 -125 0
122 -125 0
124 -125 0
-121 -122 -124 125 0
121 -126 0
122 -126 0
-124 -126 0
-121 -122 124 126 0
113 127 0
-123 127 0
-125 127 0
-126 127 0
-113 123 125 126 -127 0
111 -129 0
112 -129 0
127 -129 0
128 -129 0
-111 -112 -127 -128 129 0
111 -131 0
-112 -131 0
130 -131 0
-111 112 -130 131 0
111 -132 0
112 -132 0
127 -132 0
-128 -132 0
-111 -112 -127 128 132 0
111 -133 0
-112 -133 0
-130 -133 0
-111 112 130 133 0
-132 134 0
-133 134 0
132 133 -134 0
136 -138 0
137 -138 0
-136 -137 138 0
136 -139 0
-137 -139 0
-136 137 139 0
-138 140 0
-139 140 0
138 139 -140 0
140 -142 0
141 -142 0
-140 -141 142 0
140 -143 0
-141 -143 0
-140 141 143 0
-142 144 0
-143 144 0
142 143 -144 0
144 -146 0
-145 -146 0
-144 145 146 0
144 -148 0
145 -148 0
147 -148 0
-144 -145 -147 148 0
144 -149 0
145 -149 0
-147 -149 0
-144 -145 147 149 0
136 150 0
-146 150 0
-148 150 0
-149 150 0
-136 146 148 149 -150 0
134 -152 0
135 -152 0
150 -152 0
151 -152 0
-134 -135 -150 -151 152 0
134 -154 0
-135 -154 0
153 -154 0
-134 135 -153 154 0
134 -155 0
135 -155 0
150 -155 0
-151 -155 0
-134 -135 -150 151 155 0
134 -156 0
-135 -156 0
-153 -156 0
-134 135 153 156 0
-155 157 0
-156 157 0
155 156 -157 0
159 -161 0
160 -161 0
-159 -160 161 0
159 -162 0
-160 -162 0
-159 160 162 0
-161 163 0
-162 163 0
161 162 -163 0
163 -165 0
164 -165 0
-163 -164 165 0
163 -166 0
-164 -166 0
-163 164 166 0
-165 167 0
-166 167 0
165 166 -167 0
167 -169 0
-168 -169 0
-167 168 169 0
167 -171 0
168 -171 0
170 -171 0
-167 -168 -170 171 0
167 -172 0
168 -172 0
-170 -172 0
-167 -168 170 172 0
159 173 0
-169 173 0
-171 173 0
-172 173 0
-159 169 171 172 -173 0
157 -175 0
158 -175 0
173 -175 0
174 -175 0
-157 -158 -173 -174 175 0
157 -177 0
-158 -177 0
176 -177 0
-157 158 -176 177 0
157 -178 0
158 -178 0
173 -178 0
-174 -178 0
-157 -158 -173 174 178 0
157 -179 0
-158 -179 0
-176 -179 0
-157 158 176 179 0
-178 180 0
-179 180 0
178 179 -180 0
180 -184 0
181 -184 0
-182 -184 0
183 -184 0
-180 -181 182 -183 184 0
180 -186 0
-181 -186 0
185 -186 0
-180 181 -185 186 0
180 -187 0
-181 -187 0
-185 -187 0
-180 181 185 187 0
180 -188 0
181 -188 0
-182 -188 0
-183 -188 0
-180 -181 182 183 188 0
180 -189 0
181 -189 0
182 -189 0
-180 -181 -182 189 0
-129 190 0
-131 190 0
-152 190 0
-154 190 0
-175 190 0
-177 190 0
-184 190 0
-186 190 0
-187 190 0
-188 190 0
-189 190 0
129 131 152 154 175 177 184 186 187 188 189 -190 0
44 -191 0
103 -191 0
105 -191 0
110 -191 0
190 -191 0
-44 -103 -105 -110 -190 191 0
-12 192 0
12 192 0
6 -193 0
192 -193 0
-6 -192 193 0
-193 194 0
6 194 0
193 -6 -194 0
194 -195 0
19 -195 0
-194 -19 195 0
194 -196 0
-19 -196 0
-194 19 196 0
-195 197 0
-196 197 0
195 196 -197 0
5 -198 0
197 -198 0
-5 -197 198 0
-5 -199 0
194 -199 0
5 -194 199 0
-198 200 0
-199 200 0
198 199 -200 0
200 -201 0
-24 -201 0
-200 24 201 0
200 -202 0
24 -202 0
-200 -24 202 0
-201 203 0
-202 203 0
201 202 -203 0
4 -204 0
203 -204 0
-4 -203 204 0
-4 -205 0
200 -205 0
4 -200 205 0
-204 206 0
-205 206 0
204 205 -206 0
206 -207 0
-29 -207 0
-206 29 207 0
206 -208 0
29 -208 0
-206 -29 208 0
-207 209 0
-208 209 0
207 208 -209 0
3 -210 0
209 -210 0
-3 -209 210 0
-3 -211 0
206 -211 0
3 -206 211 0
-210 212 0
-211 212 0
210 211 -212 0
212 -213 0
-34 -213 0
-212 34 213 0
212 -214 0
34 -214 0
-212 -34 214 0
-213 215 0
-214 215 0
213 214 -215 0
2 -216 0
215 -216 0
-2 -215 216 0
212 -217 0
-38 -217 0
-212 38 217 0
212 -218 0
38 -218 0
-212 -38 218 0
-217 219 0
-218 219 0
217 218 -219 0
37 -220 0
219 -220 0
-37 -219 220 0
-37 -221 0
212 -221 0
37 -212 221 0
-220 222 0
-221 222 0
220 221 -222 0
-2 -223 0
222 -223 0
2 -222 223 0
-216 224 0
-223 224 0
216 223 -224 0
224 -225 0
-45 -225 0
-224 45 225 0
224 -226 0
45 -226 0
46 -226 0
-224 -45 -46 226 0
224 -227 0
45 -227 0
-46 -227 0
-224 -45 46 227 0
-226 228 0
-227 228 0
226 227 -228 0
228 -229 0
49 -229 0
50 -229 0
-228 -49 -50 229 0
228 -230 0
49 -230 0
-50 -230 0
-228 -49 50 230 0
-229 231 0
-230 231 0
229 230 -231 0
231 -232 0
61 -232 0
62 -232 0
-231 -61 -62 232 0
231 -233 0
61 -233 0
-62 -233 0
-231 -61 62 233 0
-232 234 0
-233 234 0
232 233 -234 0
-67 235 0
-69 235 0
-71 235 0
-73 235 0
67 69 71 73 -235 0
234 -236 0
235 -236 0
-234 -235 236 0
234 -237 0
65 -237 0
-66 -237 0
-68 -237 0
-70 -237 0
-72 -237 0
-74 -237 0
85 -237 0
-234 -65 66 68 70 72 74 -85 237 0
234 -238 0
65 -238 0
-66 -238 0
-68 -238 0
-70 -238 0
-72 -238 0
-74 -238 0
-85 -238 0
-234 -65 66 68 70 72 74 85 238 0
-237 239 0
-238 239 0
237 238 -239 0
239 -240 0
88 -240 0
89 -240 0
-239 -88 -89 240 0
239 -241 0
88 -241 0
-89 -241 0
-239 -88 89 241 0
-240 242 0
-241 242 0
240 241 -242 0
242 -243 0
92 -243 0
93 -243 0
-242 -92 -93 243 0
242 -244 0
92 -244 0
-93 -244 0
-242 -92 93 244 0
234 -245 0
65 -245 0
-66 -245 0
-68 -245 0
-70 -245 0
-72 -245 0
74 -245 0
75 -245 0
-234 -65 66 68 70 72 -74 -75 245 0
234 -246 0
65 -246 0
-66 -246 0
-68 -246 0
-70 -246 0
-72 -246 0
74 -246 0
-75 -246 0
-234 -65 66 68 70 72 -74 75 246 0
-245 247 0
-246 247 0
245 246 -247 0
247 -248 0
78 -248 0
79 -248 0
-247 -78 -79 248 0
247 -249 0
78 -249 0
-79 -249 0
-247 -78 79 249 0
-248 250 0
-249 250 0
248 249 -250 0
250 -251 0
82 -251 0
83 -251 0
-250 -82 -83 251 0
250 -252 0
82 -252 0
-83 -252 0
-250 -82 83 252 0
-243 253 0
-244 253 0
-251 253 0
-252 253 0
243 244 251 252 -253 0
-101 254 0
-102 254 0
101 102 -254 0
-99 255 0
-254 255 0
99 254 -255 0
253 -256 0
255 -256 0
-253 -255 256 0
-225 257 0
-236 257 0
-256 257 0
225 236 256 -257 0
257 -258 0
106 -258 0
108 -258 0
-257 -106 -108 258 0
257 -259 0
-106 -259 0
-257 106 259 0
-258 260 0
-259 260 0
258 259 -260 0
260 -261 0
111 -261 0
-112 -261 0
130 -261 0
-260 -111 112 -130 261 0
260 -262 0
111 -262 0
-112 -262 0
-130 -262 0
-260 -111 112 130 262 0
260 -263 0
-113 -263 0
-260 113 263 0
260 -264 0
121 -264 0
-122 -264 0
-260 -121 122 264 0
-125 265 0
-126 265 0
125 126 -265 0
260 -266 0
265 -266 0
-260 -265 266 0
-263 267 0
-264 267 0
-266 267 0
263 264 266 -267 0
267 -268 0
111 -268 0
112 -268 0
127 -268 0
-128 -268 0
-267 -111 -112 -127 128 268 0
-262 269 0
-268 269 0
262 268 -269 0
269 -270 0
134 -270 0
-135 -270 0
153 -270 0
-269 -134 135 -153 270 0
269 -271 0
-136 -271 0
-269 136 271 0
269 -272 0
144 -272 0
-145 -272 0
-269 -144 145 272 0
-148 273 0
-149 273 0
148 149 -273 0
269 -274 0
273 -274 0
-269 -273 274 0
-271 275 0
-272 275 0
-274 275 0
271 272 274 -275 0
275 -276 0
134 -276 0
135 -276 0
150 -276 0
151 -276 0
-275 -134 -135 -150 -151 276 0
269 -277 0
134 -277 0
-135 -277 0
-153 -277 0
-269 -134 135 153 277 0
275 -278 0
134 -278 0
135 -278 0
150 -278 0
-151 -278 0
-275 -134 -135 -150 151 278 0
-277 279 0
-278 279 0
277 278 -279 0
279 -280 0
157 -280 0
-158 -280 0
176 -280 0
-279 -157 158 -176 280 0
279 -281 0
-159 -281 0
-279 159 281 0
279 -282 0
167 -282 0
-168 -282 0
-279 -167 168 282 0
-171 283 0
-172 283 0
171 172 -283 0
279 -284 0
283 -284 0
-279 -283 284 0
-281 285 0
-282 285 0
-284 285 0
281 282 284 -285 0
285 -286 0
157 -286 0
158 -286 0
173 -286 0
174 -286 0
-285 -157 -158 -173 -174 286 0
279 -287 0
157 -287 0
-158 -287 0
-176 -287 0
-279 -157 158 176 287 0
285 -288 0
157 -288 0
158 -288 0
173 -288 0
-174 -288 0
-285 -157 -158 -173 174 288 0
-287 289 0
-288 289 0
287 288 -289 0
-184 290 0
-186 290 0
184 186 -290 0
289 -291 0
290 -291 0
-289 -290 291 0
289 -292 0
180 -292 0
181 -292 0
-182 -292 0
-183 -292 0
-289 -180 -181 182 183 292 0
289 -293 0
180 -293 0
181 -293 0
182 -293 0
-289 -180 -181 -182 293 0
289 -294 0
180 -294 0
-181 -294 0
-185 -294 0
-289 -180 181 185 294 0
-291 295 0
-292 295 0
-293 295 0
-294 295 0
291 292 293 294 -295 0
-184 296 0
-186 296 0
-187 296 0
-188 296 0
-189 296 0
184 186 187 188 189 -296 0
295 -297 0
296 -297 0
-295 -296 297 0
267 -298 0
111 -298 0
112 -298 0
127 -298 0
128 -298 0
-267 -111 -112 -127 -128 298 0
-261 299 0
-270 299 0
-276 299 0
-280 299 0
-286 299 0
-297 299 0
-298 299 0
261 270 276 280 286 297 298 -299 0
-12 300 0
12 300 0
6 -301 0
300 -301 0
-6 -300 301 0
-301 302 0
6 302 0
301 -6 -302 0
302 -303 0
19 -303 0
-302 -19 303 0
302 -304 0
-19 -304 0
-302 19 304 0
-303 305 0
-304 305 0
303 304 -305 0
5 -306 0
305 -306 0
-5 -305 306 0
-5 -307 0
302 -307 0
5 -302 307 0
-306 308 0
-307 308 0
306 307 -308 0
308 -309 0
-24 -309 0
-308 24 309 0
308 -310 0
24 -310 0
-308 -24 310 0
-309 311 0
-310 311 0
309 310 -311 0
4 -312 0
311 -312 0
-4 -311 312 0
-4 -313 0
308 -313 0
4 -308 313 0
-312 314 0
-313 314 0
312 313 -314 0
314 -315 0
-29 -315 0
-314 29 315 0
314 -316 0
29 -316 0
-314 -29 316 0
-315 317 0
-316 317 0
315 316 -317 0
3 -318 0
317 -318 0
-3 -317 318 0
-3 -319 0
314 -319 0
3 -314 319 0
-318 320 0
-319 320 0
318 319 -320 0
320 -321 0
-34 -321 0
-320 34 321 0
320 -322 0
34 -322 0
-320 -34 322 0
-321 323 0
-322 323 0
321 322 -323 0
2 -324 0
323 -324 0
-2 -323 324 0
320 -325 0
-38 -325 0
-320 38 325 0
320 -326 0
38 -326 0
-320 -38 326 0
-325 327 0
-326 327 0
325 326 -327 0
37 -328 0
327 -328 0
-37 -327 328 0
-37 -329 0
320 -329 0
37 -320 329 0
-328 330 0
-329 330 0
328 329 -330 0
-2 -331 0
330 -331 0
2 -330 331 0
-324 332 0
-331 332 0
324 331 -332 0
332 -333 0
-45 -333 0
-332 45 333 0
332 -334 0
45 -334 0
46 -334 0
-332 -45 -46 334 0
332 -335 0
45 -335 0
-46 -335 0
-332 -45 46 335 0
-334 336 0
-335 336 0
334 335 -336 0
336 -337 0
49 -337 0
50 -337 0
-336 -49 -50 337 0
336 -338 0
49 -338 0
-50 -338 0
-336 -49 50 338 0
-337 339 0
-338 339 0
337 338 -339 0
339 -340 0
61 -340 0
62 -340 0
-339 -61 -62 340 0
339 -341 0
61 -341 0
-62 -341 0
-339 -61 62 341 0
-340 342 0
-341 342 0
340 341 -342 0
-67 343 0
-69 343 0
-71 343 0
-73 343 0
67 69 71 73 -343 0
342 -344 0
343 -344 0
-342 -343 344 0
342 -345 0
65 -345 0
-66 -345 0
-68 -345 0
-70 -345 0
-72 -345 0
-74 -345 0
85 -345 0
-342 -65 66 68 70 72 74 -85 345 0
342 -346 0
65 -346 0
-66 -346 0
-68 -346 0
-70 -346 0
-72 -346 0
-74 -346 0
-85 -346 0
-342 -65 66 68 70 72 74 85 346 0
-345 347 0
-346 347 0
345 346 -347 0
347 -348 0
88 -348 0
89 -348 0
-347 -88 -89 348 0
347 -349 0
88 -349 0
-89 -349 0
-347 -88 89 349 0
-348 350 0
-349 350 0
348 349 -350 0
350 -351 0
92 -351 0
93 -351 0
-350 -92 -93 351 0
350 -352 0
92 -352 0
-93 -352 0
-350 -92 93 352 0
342 -353 0
65 -353 0
-66 -353 0
-68 -353 0
-70 -353 0
-72 -353 0
74 -353 0
75 -353 0
-342 -65 66 68 70 72 -74 -75 353 0
342 -354 0
65 -354 0
-66 -354 0
-68 -354 0
-70 -354 0
-72 -354 0
74 -354 0
-75 -354 0
-342 -65 66 68 70 72 -74 75 354 0
-353 355 0
-354 355 0
353 354 -355 0
355 -356 0
78 -356 0
79 -356 0
-355 -78 -79 356 0
355 -357 0
78 -357 0
-79 -357 0
-355 -78 79 357 0
-356 358 0
-357 358 0
356 357 -358 0
358 -359 0
82 -359 0
83 -359 0
-358 -82 -83 359 0
358 -360 0
82 -360 0
-83 -360 0
-358 -82 83 360 0
-351 361 0
-352 361 0
-359 361 0
-360 361 0
351 352 359 360 -361 0
-99 362 0
-254 362 0
99 254 -362 0
361 -363 0
362 -363 0
-361 -362 363 0
-333 364 0
-344 364 0
-363 364 0
333 344 363 -364 0
364 -365 0
106 -365 0
108 -365 0
-364 -106 -108 365 0
364 -366 0
-106 -366 0
-364 106 366 0
-365 367 0
-366 367 0
365 366 -367 0
367 -368 0
111 -368 0
-112 -368 0
130 -368 0
-367 -111 112 -130 368 0
367 -369 0
111 -369 0
-112 -369 0
-130 -369 0
-367 -111 112 130 369 0
367 -370 0
-113 -370 0
-367 113 370 0
367 -371 0
121 -371 0
-122 -371 0
-367 -121 122 371 0
367 -372 0
265 -372 0
-367 -265 372 0
-370 373 0
-371 373 0
-372 373 0
370 371 372 -373 0
373 -374 0
111 -374 0
112 -374 0
127 -374 0
-128 -374 0
-373 -111 -112 -127 128 374 0
-369 375 0
-374 375 0
369 374 -375 0
375 -376 0
134 -376 0
-135 -376 0
153 -376 0
-375 -134 135 -153 376 0
375 -377 0
-136 -377 0
-375 136 377 0
375 -378 0
144 -378 0
-145 -378 0
-375 -144 145 378 0
375 -379 0
273 -379 0
-375 -273 379 0
-377 380 0
-378 380 0
-379 380 0
377 378 379 -380 0
380 -381 0
134 -381 0
135 -381 0
150 -381 0
151 -381 0
-380 -134 -135 -150 -151 381 0
375 -382 0
134 -382 0
-135 -382 0
-153 -382 0
-375 -134 135 153 382 0
380 -383 0
134 -383 0
135 -383 0
150 -383 0
-151 -383 0
-380 -134 -135 -150 151 383 0
-382 384 0
-383 384 0
382 383 -384 0
384 -385 0
157 -385 0
-158 -385 0
176 -385 0
-384 -157 158 -176 385 0
384 -386 0
-159 -386 0
-384 159 386 0
384 -387 0
167 -387 0
-168 -387 0
-384 -167 168 387 0
384 -388 0
283 -388 0
-384 -283 388 0
-386 389 0
-387 389 0
-388 389 0
386 387 388 -389 0
389 -390 0
157 -390 0
158 -390 0
173 -390 0
174 -390 0
-389 -157 -158 -173 -174 390 0
384 -391 0
157 -391 0
-158 -391 0
-176 -391 0
-384 -157 158 176 391 0
389 -392 0
157 -392 0
158 -392 0
173 -392 0
-174 -392 0
-389 -157 -158 -173 174 392 0
-391 393 0
-392 393 0
391 392 -393 0
-184 394 0
-186 394 0
184 186 -394 0
393 -395 0
394 -395 0
-393 -394 395 0
393 -396 0
180 -396 0
181 -396 0
-182 -396 0
-183 -396 0
-393 -180 -181 182 183 396 0
393 -397 0
180 -397 0
181 -397 0
182 -397 0
-393 -180 -181 -182 397 0
393 -398 0
180 -398 0
-181 -398 0
-185 -398 0
-393 -180 181 185 398 0
-395 399 0
-396 399 0
-397 399 0
-398 399 0
395 396 397 398 -399 0
399 -400 0
296 -400 0
-399 -296 400 0
373 -401 0
111 -401 0
112 -401 0
127 -401 0
128 -401 0
-373 -111 -112 -127 -128 401 0
-368 402 0
-376 402 0
-381 402 0
-385 402 0
-390 402 0
-400 402 0
-401 402 0
368 376 381 385 390 400 401 -402 0
408 -410 0
409 -410 0
-408 -409 410 0
408 -411 0
-409 -411 0
-408 409 411 0
408 412 0
-410 412 0
-411 412 0
-408 410 411 -412 0
-413 414 0
413 414 0
407 -415 0
412 -415 0
414 -415 0
-407 -412 -414 415 0
-407 -416 0
412 -416 0
407 -412 416 0
-415 417 0
-416 417 0
415 416 -417 0
-418 419 0
418 419 0
-420 421 0
420 421 0
406 -422 0
417 -422 0
419 -422 0
421 -422 0
-406 -417 -419 -421 422 0
-406 -423 0
417 -423 0
419 -423 0
406 -417 -419 423 0
-422 424 0
-423 424 0
422 423 -424 0
425 426 0
-425 426 0
405 -427 0
424 -427 0
426 -427 0
-405 -424 -426 427 0
-405 -428 0
424 -428 0
405 -424 428 0
-427 429 0
-428 429 0
427 428 -429 0
430 431 0
-430 431 0
404 -432 0
429 -432 0
431 -432 0
-404 -429 -431 432 0
-404 -433 0
429 -433 0
404 -429 433 0
-432 434 0
-433 434 0
432 433 -434 0
435 436 0
-435 436 0
403 -437 0
434 -437 0
436 -437 0
-403 -434 -436 437 0
439 440 0
-439 440 0
438 -441 0
434 -441 0
440 -441 0
-438 -434 -440 441 0
-438 -442 0
434 -442 0
438 -434 442 0
-441 443 0
-442 443 0
441 442 -443 0
-403 -444 0
443 -444 0
403 -443 444 0
-437 445 0
-444 445 0
437 444 -445 0
446 -448 0
447 -448 0
-446 -447 448 0
446 -449 0
-447 -449 0
-446 447 449 0
-448 450 0
-449 450 0
448 449 -450 0
450 -452 0
451 -452 0
-450 -451 452 0
450 -453 0
-451 -453 0
-450 451 453 0
-452 454 0
-453 454 0
452 453 -454 0
454 -457 0
-455 -457 0
456 -457 0
-454 455 -456 457 0
454 -458 0
-455 -458 0
-456 -458 0
-454 455 456 458 0
454 -460 0
455 -460 0
459 -460 0
-454 -455 -459 460 0
454 -461 0
455 -461 0
-459 -461 0
-454 -455 459 461 0
-457 462 0
-458 462 0
-460 462 0
-461 462 0
457 458 460 461 -462 0
462 -464 0
463 -464 0
-462 -463 464 0
462 -465 0
-463 -465 0
-462 463 465 0
-464 466 0
-465 466 0
464 465 -466 0
466 -468 0
467 -468 0
-466 -467 468 0
466 -470 0
-467 -470 0
469 -470 0
-466 467 -469 470 0
466 -472 0
-467 -472 0
-469 -472 0
471 -472 0
-466 467 469 -471 472 0
466 -474 0
-467 -474 0
-469 -474 0
-471 -474 0
473 -474 0
-466 467 469 471 -473 474 0
466 -477 0
-467 -477 0
-469 -477 0
-471 -477 0
-473 -477 0
475 -477 0
476 -477 0
-466 467 469 471 473 -475 -476 477 0
466 -478 0
-467 -478 0
-469 -478 0
-471 -478 0
-473 -478 0
475 -478 0
-476 -478 0
-466 467 469 471 473 -475 476 478 0
-477 479 0
-478 479 0
477 478 -479 0
479 -481 0
480 -481 0
-479 -480 481 0
479 -482 0
-480 -482 0
-479 480 482 0
-481 483 0
-482 483 0
481 482 -483 0
483 -485 0
484 -485 0
-483 -484 485 0
466 -487 0
-467 -487 0
-469 -487 0
-471 -487 0
-473 -487 0
-475 -487 0
486 -487 0
-466 467 469 471 473 475 -486 487 0
466 -488 0
-467 -488 0
-469 -488 0
-471 -488 0
-473 -488 0
-475 -488 0
-486 -488 0
-466 467 469 471 473 475 486 488 0
-487 489 0
-488 489 0
487 488 -489 0
489 -491 0
490 -491 0
-489 -490 491 0
489 -492 0
-490 -492 0
-489 490 492 0
-491 493 0
-492 493 0
491 492 -493 0
493 -495 0
494 -495 0
-493 -494 495 0
483 -496 0
-484 -496 0
-483 484 496 0
493 -497 0
-494 -497 0
-493 494 497 0
-485 498 0
-495 498 0
-496 498 0
-497 498 0
485 495 496 497 -498 0
498 -500 0
-499 -500 0
-498 499 500 0
498 -502 0
499 -502 0
501 -502 0
-498 -499 -501 502 0
498 -503 0
499 -503 0
-501 -503 0
-498 -499 501 503 0
446 504 0
-468 504 0
-470 504 0
-472 504 0
-474 504 0
-500 504 0
-502 504 0
-503 504 0
-446 468 470 472 474 500 502 503 -504 0
-505 506 0
505 506 0
-508 509 0
508 509 0
507 -510 0
509 -510 0
-507 -509 510 0
507 511 0
-510 511 0
-507 510 -511 0
445 -512 0
504 -512 0
506 -512 0
511 -512 0
-445 -504 -506 -511 512 0
-413 513 0
413 513 0
407 -514 0
513 -514 0
-407 -513 514 0
-514 515 0
407 515 0
514 -407 -515 0
515 -516 0
420 -516 0
-515 -420 516 0
515 -517 0
-420 -517 0
-515 420 517 0
-516 518 0
-517 518 0
516 517 -518 0
406 -519 0
518 -519 0
-406 -518 519 0
-406 -520 0
515 -520 0
406 -515 520 0
-519 521 0
-520 521 0
519 520 -521 0
521 -522 0
-425 -522 0
-521 425 522 0
521 -523 0
425 -523 0
-521 -425 523 0
-522 524 0
-523 524 0
522 523 -524 0
405 -525 0
524 -525 0
-405 -524 525 0
-405 -526 0
521 -526 0
405 -521 526 0
-525 527 0
-526 527 0
525 526 -527 0
527 -528 0
-430 -528 0
-527 430 528 0
527 -529 0
430 -529 0
-527 -430 529 0
-528 530 0
-529 530 0
528 529 -530 0
404 -531 0
530 -531 0
-404 -530 531 0
-404 -532 0
527 -532 0
404 -527 532 0
-531 533 0
-532 533 0
531 532 -533 0
533 -534 0
-435 -534 0
-533 435 534 0
533 -535 0
435 -535 0
-533 -435 535 0
-534 536 0
-535 536 0
534 535 -536 0
403 -537 0
536 -537 0
-403 -536 537 0
533 -538 0
-439 -538 0
-533 439 538 0
533 -539 0
439 -539 0
-533 -439 539 0
-538 540 0
-539 540 0
538 539 -540 0
438 -541 0
540 -541 0
-438 -540 541 0
-438 -542 0
533 -542 0
438 -533 542 0
-541 543 0
-542 543 0
541 542 -543 0
-403 -544 0
543 -544 0
403 -543 544 0
-537 545 0
-544 545 0
537 544 -545 0
545 -546 0
-446 -546 0
-545 446 546 0
545 -547 0
446 -547 0
447 -547 0
-545 -446 -447 547 0
545 -548 0
446 -548 0
-447 -548 0
-545 -446 447 548 0
-547 549 0
-548 549 0
547 548 -549 0
549 -550 0
450 -550 0
451 -550 0
-549 -450 -451 550 0
549 -551 0
450 -551 0
-451 -551 0
-549 -450 451 551 0
-550 552 0
-551 552 0
550 551 -552 0
552 -553 0
462 -553 0
463 -553 0
-552 -462 -463 553 0
552 -554 0
462 -554 0
-463 -554 0
-552 -462 463 554 0
-553 555 0
-554 555 0
553 554 -555 0
-468 556 0
-470 556 0
-472 556 0
-474 556 0
468 470 472 474 -556 0
555 -557 0
556 -557 0
-555 -556 557 0
555 -558 0
466 -558 0
-467 -558 0
-469 -558 0
-471 -558 0
-473 -558 0
-475 -558 0
486 -558 0
-555 -466 467 469 471 473 475 -486 558 0
555 -559 0
466 -559 0
-467 -559 0
-469 -559 0
-471 -559 0
-473 -559 0
-475 -559 0
-486 -559 0
-555 -466 467 469 471 473 475 486 559 0
-558 560 0
-559 560 0
558 559 -560 0
560 -561 0
489 -561 0
490 -561 0
-560 -489 -490 561 0
560 -562 0
489 -562 0
-490 -562 0
-560 -489 490 562 0
-561 563 0
-562 563 0
561 562 -563 0
563 -564 0
493 -564 0
494 -564 0
-563 -493 -494 564 0
563 -565 0
493 -565 0
-494 -565 0
-563 -493 494 565 0
555 -566 0
466 -566 0
-467 -566 0
-469 -566 0
-471 -566 0
-473 -566 0
475 -566 0
476 -566 0
-555 -466 467 469 471 473 -475 -476 566 0
555 -567 0
466 -567 0
-467 -567 0
-469 -567 0
-471 -567 0
-473 -567 0
475 -567 0
-476 -567 0
-555 -466 467 469 471 473 -475 476 567 0
-566 568 0
-567 568 0
566 567 -568 0
568 -569 0
479 -569 0
480 -569 0
-568 -479 -480 569 0
568 -570 0
479 -570 0
-480 -570 0
-568 -479 480 570 0
-569 571 0
-570 571 0
569 570 -571 0
571 -572 0
483 -572 0
484 -572 0
-571 -483 -484 572 0
571 -573 0
483 -573 0
-484 -573 0
-571 -483 484 573 0
-564 574 0
-565 574 0
-572 574 0
-573 574 0
564 565 572 573 -574 0
-502 575 0
-503 575 0
502 503 -575 0
-500 576 0
-575 576 0
500 575 -576 0
574 -577 0
576 -577 0
-574 -576 577 0
-546 578 0
-557 578 0
-577 578 0
546 557 577 -578 0
578 -579 0
507 -579 0
509 -579 0
-578 -507 -509 579 0
578 -580 0
-507 -580 0
-578 507 580 0
-579 581 0
-580 581 0
579 580 -581 0
-413 582 0
413 582 0
407 -583 0
582 -583 0
-407 -582 583 0
-583 584 0
407 584 0
583 -407 -584 0
584 -585 0
420 -585 0
-584 -420 585 0
584 -586 0
-420 -586 0
-584 420 586 0
-585 587 0
-586 587 0
585 586 -587 0
406 -588 0
587 -588 0
-406 -587 588 0
-406 -589 0
584 -589 0
406 -584 589 0
-588 590 0
-589 590 0
588 589 -590 0
590 -591 0
-425 -591 0
-590 425 591 0
590 -592 0
425 -592 0
-590 -425 592 0
-591 593 0
-592 593 0
591 592 -593 0
405 -594 0
593 -594 0
-405 -593 594 0
-405 -595 0
590 -595 0
405 -590 595 0
-594 596 0
-595 596 0
594 595 -596 0
596 -597 0
-430 -597 0
-596 430 597 0
596 -598 0
430 -598 0
-596 -430 598 0
-597 599 0
-598 599 0
597 598 -599 0
404 -600 0
599 -600 0
-404 -599 600 0
-404 -601 0
596 -601 0
404 -596 601 0
-600 602 0
-601 602 0
600 601 -602 0
602 -603 0
-435 -603 0
-602 435 603 0
602 -604 0
435 -604 0
-602 -435 604 0
-603 605 0
-604 605 0
603 604 -605 0
403 -606 0
605 -606 0
-403 -605 606 0
602 -607 0
-439 -607 0
-602 439 607 0
602 -608 0
439 -608 0
-602 -439 608 0
-607 609 0
-608 609 0
607 608 -609 0
438 -610 0
609 -610 0
-438 -609 610 0
-438 -611 0
602 -611 0
438 -602 611 0
-610 612 0
-611 612 0
610 611 -612 0
-403 -613 0
612 -613 0
403 -612 613 0
-606 614 0
-613 614 0
606 613 -614 0
614 -615 0
-446 -615 0
-614 446 615 0
614 -616 0
446 -616 0
447 -616 0
-614 -446 -447 616 0
614 -617 0
446 -617 0
-447 -617 0
-614 -446 447 617 0
-616 618 0
-617 618 0
616 617 -618 0
618 -619 0
450 -619 0
451 -619 0
-618 -450 -451 619 0
618 -620 0
450 -620 0
-451 -620 0
-618 -450 451 620 0
-619 621 0
-620 621 0
619 620 -621 0
621 -622 0
462 -622 0
463 -622 0
-621 -462 -463 622 0
621 -623 0
462 -623 0
-463 -623 0
-621 -462 463 623 0
-622 624 0
-623 624 0
622 623 -624 0
-468 625 0
-470 625 0
-472 625 0
-474 625 0
468 470 472 474 -625 0
624 -626 0
625 -626 0
-624 -625 626 0
624 -627 0
466 -627 0
-467 -627 0
-469 -627 0
-471 -627 0
-473 -627 0
-475 -627 0
486 -627 0
-624 -466 467 469 471 473 475 -486 627 0
624 -628 0
466 -628 0
-467 -628 0
-469 -628 0
-471 -628 0
-473 -628 0
-475 -628 0
-486 -628 0
-624 -466 467 469 471 473 475 486 628 0
-627 629 0
-628 629 0
627 628 -629 0
629 -630 0
489 -630 0
490 -630 0
-629 -489 -490 630 0
629 -631 0
489 -631 0
-490 -631 0
-629 -489 490 631 0
-630 632 0
-631 632 0
630 631 -632 0
632 -633 0
493 -633 0
494 -633 0
-632 -493 -494 633 0
632 -634 0
493 -634 0
-494 -634 0
-632 -493 494 634 0
624 -635 0
466 -635 0
-467 -635 0
-469 -635 0
-471 -635 0
-473 -635 0
475 -635 0
476 -635 0
-624 -466 467 469 471 473 -475 -476 635 0
624 -636 0
466 -636 0
-467 -636 0
-469 -636 0
-471 -636 0
-473 -636 0
475 -636 0
-476 -636 0
-624 -466 467 469 471 473 -475 476 636 0
-635 637 0
-636 637 0
635 636 -637 0
637 -638 0
479 -638 0
480 -638 0
-637 -479 -480 638 0
637 -639 0
479 -639 0
-480 -639 0
-637 -479 480 639 0
-638 640 0
-639 640 0
638 639 -640 0
640 -641 0
483 -641 0
484 -641 0
-640 -483 -484 641 0
640 -642 0
483 -642 0
-484 -642 0
-640 -483 484 642 0
-633 643 0
-634 643 0
-641 643 0
-642 643 0
633 634 641 642 -643 0
-500 644 0
-575 644 0
500 575 -644 0
643 -645 0
644 -645 0
-643 -644 645 0
-615 646 0
-626 646 0
-645 646 0
615 626 645 -646 0
646 -647 0
507 -647 0
509 -647 0
-646 -507 -509 647 0
646 -648 0
-507 -648 0
-646 507 648 0
-647 649 0
-648 649 0
647 648 -649 0
-581 -299 -650 0
581 299 -650 0
-581 299 650 0
581 -299 650 0
-649 -402 -651 0
649 402 -651 0
-649 402 651 0
649 -402 651 0
-650 -652 0
-651 -652 0
512 -652 0
650 651 -512 652 0
-191 652 0
